120
150
78
95
51
62
26
26
36
47
70
30
37
57
56
51
31
32
36
70
36
36
46
38
60
52
87
39
22
89
67
78
99
46
84
67
94
56
51
99
36
38
50
26
40
38
23
80
70
70
80
62
88
84
32
77
38
62
47
41
57
91
28
88
34
36
36
98
52
56
65
29
73
40
37
62
88
52
98
28
67
57
40
52
50
65
35
69
78
47
74
29
30
35
94
56
54
95
77
75
89
30
62
84
84
91
31
28
50
100
70
80
84
75
95
62
88
98
88
60
60
89
